VALUE 1700459
1 161
1 3
3 5
8 154
9 158
11 159
8 15
17 153
19 142
21 146
23 146
19 27
29 141
31 130
33 134
35 134
31 39
41 129
43 118
45 122
47 122
43 51
53 117
55 106
57 110
59 110
55 63
65 105
69 98
71 98
75 93
77 93
79 86
82 157
86 88
77 88
93 94
71 94
98 100
65 100
105 106
59 106
110 112
53 112
117 118
47 118
122 124
41 124
129 130
35 130
134 136
29 136
141 142
23 142
146 148
17 148
153 154
11 154
9 157
158 159
5 159
3 162
5 163
9 164
15 165
21 166
27 167
33 168
39 169
45 170
51 171
57 172
63 173
69 174
75 175
79 176
82 177

